26 100000
85472 71
52109 67
65997 43
28016 69
39800 71
91146 67
16765 83
51432 8
86448 85
91767 20
77093 94
13737 31
28518 55
5540 43
4744 68
37684 73
85667 2
38162 18
70037 64
71232 25
20841 23
4736 39
23323 6
18822 5
76738 95
95160 17
